45
0 0 0 0 0 0 0 0 0 0 0 0 0 0 0 0 0 0 0 0 0 0 0 0 0 0 0 0 0 0 0 0 0 0 0 0 1 0 0 0 0 3 0 0 0
0 0 2 0 0 0 2 0 0 0 2 0 0 0 0 0 0 0 0 0 0 0 1 0 0 1 0 0 0 0 0 3 0 0 1 0 0 0 0 0 0 0 0 0 0
0 1 0 0 0 0 0 0 0 0 0 0 0 0 0 0 0 0 0 3 0 0 1 2 0 0 0 0 0 0 0 0 0 0 2 0 0 1 0 0 0 0 0 0 0
0 0 0 0 1 3 0 0 1 0 1 0 0 0 0 0 0 0 0 0 0 0 3 0 1 2 0 0 0 0 0 0 3 3 0 0 2 0 0 0 0 1 1 0 0
0 0 0 1 0 0 0 0 0 0 0 0 0 0 0 0 0 0 0 0 0 0 0 0 0 1 0 0 0 0 0 0 2 3 0 0 0 0 0 0 0 0 0 0 0
0 0 0 2 0 0 0 0 0 3 0 0 0 0 0 0 0 0 0 0 0 0 0 0 0 0 0 0 1 0 0 0 0 0 1 0 0 0 0 0 0 0 3 0 0
0 3 0 0 0 0 0 0 0 0 0 0 0 0 0 0 0 3 0 0 0 0 0 0 0 1 0 0 0 0 0 0 0 0 2 0 0 1 1 0 0 0 0 0 0
0 0 0 0 0 0 0 0 0 0 1 0 0 0 0 0 0 0 0 0 0 2 2 1 1 0 2 0 0 0 0 0 0 0 1 0 0 6 0 0 0 1 0 0 0
0 0 0 1 0 0 0 0 0 0 0 0 0 0 0 0 0 0 0 0 0 0 0 0 2 3 0 0 0 0 0 0 0 2 2 0 0 0 0 0 0 0 0 0 0
0 0 0 0 0 2 0 0 0 0 0 0 0 0 0 0 0 0 0 0 0 0 0 0 0 0 0 0 1 0 0 0 0 0 0 0 0 0 0 0 0 0 0 0 0
0 1 0 2 0 0 0 1 0 0 0 0 0 0 0 0 0 0 0 0 0 0 0 0 0 0 0 0 0 0 0 2 0 0 0 0 1 2 0 0 0 0 0 0 0
0 0 0 0 0 0 0 0 0 0 0 0 0 1 0 0 0 0 0 0 0 0 0 0 2 0 0 0 0 0 0 2 0 1 0 0 0 0 0 0 0 0 0 0 0
0 0 0 0 0 0 0 0 0 0 0 0 0 0 0 0 0 0 0 0 0 0 0 0 0 0 0 0 0 0 0 0 0 0 0 0 0 0 0 0 0 0 0 0 0
0 0 0 0 0 0 0 0 0 0 0 2 0 0 0 0 0 0 0 0 0 0 0 0 0 0 0 0 0 0 0 1 0 0 0 0 0 0 0 0 0 0 0 0 0
0 0 0 0 0 0 0 0 0 0 0 0 0 0 0 0 0 0 0 0 2 0 0 0 0 0 0 0 0 0 0 0 0 0 2 0 0 0 0 0 0 0 0 2 0
0 0 0 0 0 0 0 0 0 0 0 0 0 0 0 0 0 0 0 0 0 0 0 0 0 0 0 0 0 0 0 0 0 0 0 0 0 0 0 0 0 0 0 0 0
0 0 0 0 0 0 0 0 0 0 0 0 0 0 0 0 0 0 0 0 0 0 0 0 0 0 0 0 0 0 0 0 0 0 0 0 0 0 0 0 0 0 0 0 0
0 0 0 0 0 0 2 0 0 0 0 0 0 0 0 0 0 0 0 0 0 0 0 0 0 1 0 0 0 0 0 0 2 0 0 0 0 0 1 0 0 0 0 0 0
0 0 0 0 0 0 0 0 0 0 0 0 0 0 0 0 0 0 0 0 0 0 0 0 0 0 0 2 3 0 0 0 0 0 0 0 0 0 1 0 0 0 1 0 0
0 0 2 0 0 0 0 0 0 0 0 0 0 0 0 0 0 0 0 0 0 0 0 0 0 0 0 0 0 0 0 0 0 0 0 0 0 1 0 0 0 0 0 0 0
0 0 0 0 0 0 0 0 0 0 0 0 0 0 1 0 0 0 0 0 0 0 0 0 2 0 0 0 0 1 0 0 0 0 0 0 0 0 0 0 0 0 0 2 0
0 0 0 0 0 0 0 3 0 0 0 0 0 0 0 0 0 0 0 0 0 0 0 1 0 0 0 0 0 0 0 0 0 0 0 0 0 0 0 0 0 0 0 0 0
0 1 2 2 0 0 0 1 0 0 0 0 0 0 0 0 0 0 0 0 0 0 0 1 1 0 0 0 0 0 0 3 0 0 2 0 0 0 0 0 0 0 0 0 0
0 0 3 0 0 0 0 2 0 0 0 0 0 0 0 0 0 0 0 0 0 1 1 0 0 1 0 0 0 2 0 0 0 0 0 0 0 0 0 0 0 0 0 0 0
0 0 0 1 0 0 0 1 3 0 0 1 0 0 0 0 0 0 0 0 1 0 2 0 0 0 3 0 0 2 0 0 0 3 0 0 0 1 0 0 0 0 3 0 0
0 2 0 1 1 0 1 0 2 0 0 0 0 0 0 0 0 1 0 0 0 0 0 2 0 0 0 0 0 1 0 0 5 2 0 1 0 0 0 0 0 0 0 0 0
0 0 0 0 0 0 0 1 0 0 0 0 0 0 0 0 0 0 0 0 0 0 0 0 2 0 0 0 0 3 0 0 0 0 0 0 0 0 1 0 0 0 0 0 0
0 0 0 0 0 0 0 0 0 0 0 0 0 0 0 0 0 0 1 0 0 0 0 0 0 0 0 0 0 0 0 0 0 0 3 0 0 0 0 0 0 0 2 1 0
0 0 0 0 0 1 0 0 0 2 0 0 0 0 0 0 0 0 2 0 0 0 0 0 0 0 0 0 0 0 1 0 0 0 3 0 0 0 1 0 0 0 0 0 0
0 0 0 0 0 0 0 0 0 0 0 0 0 0 0 0 0 0 0 0 1 0 0 3 3 1 2 0 0 0 0 0 0 0 0 0 0 0 1 0 0 0 2 1 0
0 0 0 0 0 0 0 0 0 0 0 0 0 0 0 0 0 0 0 0 0 0 0 0 0 0 0 0 1 0 0 0 0 0 2 0 0 0 0 0 0 0 0 0 0
0 2 0 0 0 0 0 0 0 0 3 3 0 1 0 0 0 0 0 0 0 0 2 0 0 0 0 0 0 0 0 0 0 0 0 0 0 0 0 0 0 0 0 0 0
0 0 0 2 1 0 0 0 0 0 0 0 0 0 0 0 0 1 0 0 0 0 0 0 0 5 0 0 0 0 0 0 0 0 0 1 0 0 0 0 0 0 0 0 0
0 0 0 2 2 0 0 0 3 0 0 1 0 0 0 0 0 0 0 0 0 0 0 0 4 1 0 0 0 0 0 0 0 0 3 0 0 0 0 0 0 1 0 0 0
0 1 3 0 0 2 1 1 1 0 0 0 0 0 3 0 0 0 0 0 0 0 3 0 0 0 0 2 2 0 1 0 0 2 0 0 0 2 0 0 0 0 1 2 0
0 0 0 0 0 0 0 0 0 0 0 0 0 0 0 0 0 0 0 0 0 0 0 0 0 2 0 0 0 0 0 0 1 0 0 0 0 0 0 0 0 0 0 0 0
1 0 0 3 0 0 0 0 0 0 1 0 0 0 0 0 0 0 0 0 0 0 0 0 0 0 0 0 0 0 0 0 0 0 0 0 0 0 0 0 0 2 0 0 0
0 0 1 0 0 0 1 4 0 0 1 0 0 0 0 0 0 0 0 2 0 0 0 0 1 0 0 0 0 0 0 0 0 0 3 0 0 0 0 0 0 1 2 0 0
0 0 0 0 0 0 1 0 0 0 0 0 0 0 0 0 0 2 1 0 0 0 0 0 0 0 1 0 2 2 0 0 0 0 0 0 0 0 0 0 0 0 0 0 0
0 0 0 0 0 0 0 0 0 0 0 0 0 0 0 0 0 0 0 0 0 0 0 0 0 0 0 0 0 0 0 0 0 0 0 0 0 0 0 0 0 0 0 0 0
0 0 0 0 0 0 0 0 0 0 0 0 0 0 0 0 0 0 0 0 0 0 0 0 0 0 0 0 0 0 0 0 0 0 0 0 0 0 0 0 0 0 0 0 0
2 0 0 1 0 0 0 1 0 0 0 0 0 0 0 0 0 0 0 0 0 0 0 0 0 0 0 0 0 0 0 0 0 2 0 0 1 2 0 0 0 0 0 0 0
0 0 0 1 0 5 0 0 0 0 0 0 0 0 0 0 0 0 1 0 0 0 0 0 2 0 0 3 0 1 0 0 0 0 1 0 0 1 0 0 0 0 0 2 0
0 0 0 0 0 0 0 0 0 0 0 0 0 0 3 0 0 0 0 0 3 0 0 0 0 0 0 1 0 1 0 0 0 0 3 0 0 0 0 0 0 0 3 0 0
0 0 0 0 0 0 0 0 0 0 0 0 0 0 0 0 0 0 0 0 0 0 0 0 0 0 0 0 0 0 0 0 0 0 0 0 0 0 0 0 0 0 0 0 0

0 7 1 7 7 5 2 12 5 8 1 1 27 10 14 1 2 22 8 3 3 6 4 10 1 1 1 15 4 6 2 14 1 1 4 5 7 2 1 8 9 12 6 3 3
10 0 1 6 4 2 9 1 1 12 3 12 3 4 10 2 11 6 16 9 4 1 21 1 10 9 24 1 5 13 3 1 7 6 5 4 1 11 5 18 7 11 20 17 23
1 1 0 2 8 6 2 7 2 1 17 1 4 20 2 2 42 3 12 5 2 10 1 15 18 4 34 1 9 2 10 5 2 7 1 6 14 2 9 20 20 5 4 1 15
8 22 11 0 9 5 6 13 1 18 2 3 4 13 1 19 5 2 24 1 2 5 12 4 4 11 12 1 12 32 12 6 6 19 2 7 9 2 9 2 3 20 4 11 17
4 41 3 18 0 1 8 21 16 4 10 2 10 10 14 16 1 2 8 9 18 7 10 9 4 29 1 6 6 7 11 8 32 7 17 3 13 13 3 1 2 4 7 22 11
5 4 3 7 1 0 5 1 15 7 5 11 2 3 3 10 44 3 16 4 8 9 6 4 11 4 1 6 13 2 12 47 14 2 2 5 9 2 1 9 9 2 6 9 6
14 19 9 22 2 3 0 3 6 4 3 1 13 2 2 1 6 15 9 2 5 15 3 6 5 5 21 10 2 7 2 4 14 14 5 4 4 20 10 3 11 3 9 4 8
3 1 7 13 15 1 11 0 12 1 4 1 6 4 16 5 15 2 7 5 5 2 14 1 3 3 10 7 10 5 1 3 4 1 2 2 13 5 1 20 13 5 6 2 12
7 1 7 1 5 3 8 13 0 3 4 15 2 10 1 13 13 2 11 17 3 3 11 9 4 5 11 3 2 8 4 1 13 5 3 9 9 11 10 2 6 3 5 7 6
14 7 1 6 8 10 13 1 21 0 1 3 4 5 4 5 3 12 5 26 4 17 1 18 2 2 3 2 3 1 13 3 6 1 1 4 5 4 2 5 4 15 2 2 3
1 4 14 4 5 5 6 3 10 1 0 1 6 6 5 4 16 9 2 8 14 3 10 35 16 7 1 9 4 1 4 2 1 5 2 10 18 7 2 6 3 19 3 4 3
1 7 1 11 18 8 1 1 11 14 1 0 2 7 1 1 5 11 11 10 3 46 4 10 3 2 1 6 22 14 1 2 4 17 4 1 4 10 12 14 5 1 15 27 6
4 10 8 5 16 4 2 5 15 4 23 5 0 11 9 3 5 7 3 6 3 6 4 18 1 40 3 2 3 5 23 28 4 18 2 3 23 3 7 10 3 2 1 3 23
9 13 30 11 3 9 15 4 8 3 2 2 2 0 17 4 7 26 1 20 14 8 3 7 4 2 12 11 4 17 3 2 12 20 6 1 23 15 3 2 3 2 14 2 5
6 4 24 1 2 14 5 3 1 28 13 1 2 7 0 6 5 8 10 3 5 1 8 2 10 3 1 4 9 2 3 10 37 12 5 1 13 19 3 10 12 7 10 9 6
1 14 6 8 3 12 1 3 7 24 4 1 11 2 6 0 4 7 5 5 2 16 12 5 5 9 10 2 3 2 7 4 5 8 5 7 7 4 1 2 6 12 21 8 2
8 6 2 2 1 16 4 5 34 3 4 2 11 17 26 2 0 1 5 5 1 1 1 1 7 6 3 11 6 12 3 2 6 7 3 16 13 11 13 1 3 7 1 2 12
10 4 25 5 8 20 3 4 2 19 21 3 16 16 2 14 1 0 21 4 1 4 8 14 13 9 9 1 2 5 2 4 1 5 2 21 3 5 5 3 2 13 7 1 12
4 5 3 8 26 21 3 29 3 9 5 7 4 1 8 6 6 14 0 28 12 10 25 8 5 8 11 10 1 4 3 1 3 2 10 1 5 23 9 8 23 4 4 2 12
6 7 3 1 5 3 2 6 3 11 3 9 2 26 4 8 12 7 27 0 4 34 15 8 12 5 17 1 4 10 12 4 5 2 14 5 9 21 4 2 14 3 4 10 3
14 13 9 4 3 9 11 9 4 2 4 2 18 4 10 17 1 1 19 6 0 7 8 2 23 2 6 8 9 4 1 10 2 19 6 2 5 1 14 4 10 10 11 5 6
4 1 13 11 8 8 2 4 2 9 4 4 30 3 1 8 1 35 7 3 5 0 19 1 9 3 1 1 2 9 6 8 14 43 7 5 3 19 1 1 19 4 2 20 4
3 5 1 5 27 4 3 9 3 1 8 7 9 9 13 31 1 9 38 7 21 7 0 3 11 5 2 6 27 12 5 30 1 6 1 19 6 1 9 4 4 17 1 1 1
25 1 6 9 8 7 3 1 2 2 14 4 8 10 13 7 1 2 10 18 11 1 6 0 9 2 7 8 3 2 21 6 4 6 5 18 12 3 5 3 3 8 6 12 2
1 24 2 24 18 17 2 15 4 6 6 8 1 10 13 3 27 7 2 3 7 9 9 4 0 4 1 6 30 4 2 7 8 7 3 20 1 18 2 2 19 7 1 9 2
1 5 2 4 6 25 11 2 2 14 3 7 4 3 12 7 4 7 3 10 3 4 7 5 10 0 18 13 3 15 7 6 3 1 5 7 9 9 29 11 8 4 12 7 2
1 7 5 8 1 1 6 4 16 18 1 1 16 8 1 11 5 6 8 5 20 1 8 6 1 2 0 18 1 14 5 4 28 5 4 8 1 2 18 6 25 23 7 13 7
4 1 1 1 4 3 4 3 11 2 2 26 4 7 4 4 19 1 13 1 12 1 22 10 2 20 8 0 4 14 1 1 1 14 10 6 6 2 6 1 12 13 12 1 22
15 3 19 4 16 2 18 3 8 17 15 7 2 2 4 15 7 29 1 3 5 24 11 2 6 3 1 3 0 30 4 1 11 6 3 2 1 4 10 4 1 4 13 1 9
17 2 3 25 6 25 6 7 10 1 1 14 18 2 21 13 17 7 7 3 6 3 8 6 2 17 10 5 5 0 2 29 8 4 2 10 4 8 2 20 17 15 3 4 25
11 12 4 38 6 5 10 1 7 2 15 1 6 16 6 11 5 7 6 3 1 9 2 2 7 3 8 1 31 18 0 16 2 5 4 1 6 1 1 9 2 10 5 1 6
6 1 7 10 2 2 13 15 1 31 12 12 3 2 4 12 6 15 1 5 3 20 11 6 3 3 2 1 1 29 5 0 3 6 9 5 1 8 8 1 10 5 4 16 12
1 26 3 2 8 18 3 19 4 7 1 6 4 33 12 9 14 1 35 4 4 5 1 6 5 3 3 1 21 9 7 13 0 3 1 5 5 19 10 15 37 2 3 2 2
1 7 28 8 17 22 6 1 11 1 3 3 3 4 12 4 2 10 3 11 2 4 48 7 6 1 11 9 10 5 9 6 6 0 11 6 12 16 5 13 8 14 7 3 11
4 10 1 3 7 3 6 8 23 1 22 4 9 6 5 8 10 6 5 18 7 4 1 15 3 16 2 6 7 12 9 4 1 11 0 6 5 19 2 16 23 3 6 8 7
5 5 4 2 6 24 15 5 7 9 45 1 3 1 1 13 15 6 1 7 10 22 3 8 5 6 16 7 14 11 1 2 5 7 16 0 16 3 1 11 16 1 2 15 3
3 1 2 6 8 8 3 2 9 13 8 10 8 11 12 17 9 2 7 4 2 2 3 14 1 14 1 5 1 16 10 1 7 17 2 10 0 5 11 3 2 14 4 13 12
7 6 2 16 2 8 5 12 3 4 3 6 11 2 2 2 5 9 9 13 1 4 1 2 2 8 16 3 9 4 1 17 3 2 3 2 2 0 3 15 1 22 3 1 1
1 2 2 9 10 1 8 1 2 5 9 3 5 5 3 1 2 2 8 8 2 1 15 10 3 2 9 12 2 22 1 2 39 33 4 1 2 3 0 1 4 28 9 15 5
5 5 3 4 1 13 5 5 11 7 9 8 4 3 3 4 1 11 6 7 9 1 9 7 10 9 26 1 2 19 5 1 23 2 3 10 14 5 1 0 8 12 4 8 8
4 21 3 8 13 16 22 7 2 2 17 4 7 26 2 2 19 13 9 22 11 2 17 12 2 7 28 12 1 11 5 49 14 3 33 11 3 1 6 7 0 16 4 1 7
36 3 3 7 14 2 2 6 6 8 5 1 8 6 4 15 7 2 8 14 32 4 4 6 8 7 3 10 15 4 6 5 2 2 5 1 3 16 7 13 5 0 8 9 8
11 3 22 15 11 17 8 12 3 15 2 8 1 5 6 25 1 2 7 6 6 6 1 18 1 8 9 6 13 32 5 11 8 36 12 5 16 2 6 8 9 4 0 2 3
17 8 1 5 4 6 17 3 2 10 20 3 25 13 19 5 6 1 7 20 21 10 1 7 31 12 3 1 1 12 1 4 2 4 8 17 4 1 21 3 1 2 3 0 2
3 24 8 11 4 11 13 8 2 9 2 15 5 24 2 2 8 6 15 5 27 3 1 19 5 7 5 11 3 24 5 2 6 6 9 2 3 1 13 2 3 3 20 5 0
